18,4	0,0	6,3	13,3	0,0	0,0	0,0	0,0	0,0	11,8
12,6	6,2	0,0	15,6	15,4	0,0	0,0	7,2	0,0	0,0
0,0	0,0	14,8	0,0	14,6	12,5	0,0	0,0	9,8	0,0
19,9	0,0	18,5	0,0	0,0	0,0	8,4	0,0	0,0	0,0
0,0	8,9	0,0	15,4	11,2	0,0	0,0	14,0	0,0	0,0
0,0	8,1	14,1	0,0	15,9	16,8	0,0	0,0	5,8	0,0
0,0	9,0	0,0	6,4	0,0	0,0	6,8	0,0	0,0	10,5
15,2	0,0	13,5	0,0	0,0	0,0	0,0	0,0	0,0	13,9
0,0	19,3	0,0	19,6	8,1	0,0	0,0	18,9	0,0	0,0
0,0	0,0	8,3	0,0	0,0	5,5	9,1	0,0	0,0	7,7
0,0	16,8	0,0	0,0	12,1	0,0	15,0	0,0	17,4	7,6
19,7	0,0	12,5	0,0	10,7	0,0	19,1	13,9	5,2	0,0
0,0	14,1	0,0	0,0	0,0	15,5	0,0	13,7	19,4	10,4
17,1	7,6	5,8	0,0	0,0	9,6	0,0	10,0	14,9	0,0
9,9	0,0	5,4	0,0	8,3	16,9	18,0	6,7	0,0	0,0
0,0	19,4	0,0	5,9	0,0	19,2	0,0	20,0	0,0	0,0
12,7	0,0	7,0	18,3	10,0	0,0	0,0	14,9	0,0	0,0
0,0	0,0	5,1	0,0	0,0	14,9	8,4	0,0	10,9	15,0
14,0	0,0	0,0	17,6	11,6	12,9	11,3	14,3	0,0	14,3
0,0	6,9	0,0	18,7	0,0	0,0	14,4	0,0	11,0	14,5
									
3,5	2,7	3,5	2,8	2,9	3,0	3,1	4,0	4,5	3,9
